# Solution for model iteration_194
# Objective value = 2.2857311073382022e+01
0 0
1 0.001
3 0.001
5 0.001
6 30.001
7 0.001
8 30.001
9 3.0222334103943012e+01
11 3.0002000000000002e+01
12 40.002
13 3.0002000000000002e+01
14 40.002
15 5.0369223506571679e+01
17 4.0458333851326437e+01
19 4.5333501155914519e+01
21 40.003
22 50.003
23 40.003
25 40.003
26 50.003
27 50.004
28 60.004
29 5.7086853307447917e+01
31 50.004
32 60.004
33 9.4021817212267138e+01
34 1.0402181721226714e+02
35 8.1279957088478625e+01
37 8.6298246578312074e+01
39 6.0004999999999995e+01
40 75.005
41 6.0004999999999995e+01
42 70.005
43 70.006
44 91.006
45 9.7326325128403482e+01
47 7.6861936928234826e+01
48 1.1286193692823483e+02
49 1.1747421453103215e+02
51 1.3666647008488377e+02
53 1.3215360141000204e+02
55 91.007
56 136.007
57 1.1474191330877360e+02
59 1.8252182491657371e+02
61 1.7800895624169203e+02
63 1.5503669211403096e+02
64 1.9103669211403096e+02
65 1.4803101856401457e+02
67 223.864311073382
68 233.864311073382
69 188.864311073382
70 233.864311073382
71 1.9103769211403096e+02
72 2.0103769211403096e+02
73 233.865311073382
74 243.865311073382
75 243.866311073382
c(0,75)_rl 0
c(0,75)_ru 2.2857311073382022e+01
lambda[0] 0
lambda[1] 0
lambda[2] 0
lambda[3] 0
lambda[4] 0
lambda[5] 0
lambda[6] 0
lambda[7] 0
lambda[8] 0
lambda[9] 0
lambda[10] 0
lambda[11] 0
lambda[12] 0
lambda[13] 0
lambda[14] 0
lambda[15] 0
lambda[16] 0
lambda[17] 0
lambda[18] 0
lambda[19] 0
lambda[20] 0
lambda[21] 0
lambda[22] 0
lambda[23] 0
lambda[24] 0
lambda[25] 0
lambda[26] 0
lambda[27] 0
lambda[28] 0
lambda[29] 0
lambda[30] 0
lambda[31] 0
lambda[32] 0
lambda[33] 0
lambda[34] 0
lambda[35] 0
lambda[36] 0
lambda[37] 0
lambda[38] 0
lambda[39] 0
lambda[40] 0
lambda[41] 0
lambda[42] 0
lambda[43] 0
lambda[44] 0
lambda[45] 0
lambda[46] 0
lambda[47] 0
lambda[48] 0
lambda[49] 0
lambda[50] 0
lambda[51] 0
lambda[52] 0
lambda[53] 0
lambda[54] 0
lambda[55] 0
lambda[56] 0
lambda[57] 0
lambda[58] 0
lambda[59] 0
lambda[60] 0
lambda[61] 0
lambda[62] 0
lambda[63] 0
lambda[64] 0
lambda[65] 0
lambda[66] 0
lambda[67] 0
lambda[68] 0
lambda[69] 0
lambda[70] 0
lambda[71] 0
lambda[72] 0
lambda[73] 0
lambda[74] 0
lambda[75] 0
lambda[76] 0
lambda[77] 0
lambda[78] 0
lambda[79] 0
lambda[80] 0
lambda[81] 0
lambda[82] 0
lambda[83] 0
lambda[84] 0
lambda[85] 0
lambda[86] 0
lambda[87] 0
lambda[88] 0
lambda[89] 0
lambda[90] 0
lambda[91] 0
lambda[92] 0
lambda[93] 0
lambda[94] 0
lambda[95] 0
lambda[96] 0
lambda[97] 0
lambda[98] 0
lambda[99] 0
lambda[100] 0
lambda[101] 0
lambda[102] 0
lambda[103] 0
lambda[104] 0
lambda[105] 0
lambda[106] 0
lambda[107] 0
lambda[108] 0
lambda[109] 0
lambda[110] 0
lambda[111] 0
lambda[112] 0
lambda[113] 0
lambda[114] 0
lambda[115] 0
lambda[116] 0
lambda[117] 0
lambda[118] 0
lambda[119] 0
lambda[120] 0
lambda[121] 0
lambda[122] 0
lambda[123] 0
lambda[124] 0
lambda[125] 0
lambda[126] 0
lambda[127] 0
lambda[128] 0
lambda[129] 0
lambda[130] 0
lambda[131] 0
lambda[132] 0
lambda[133] 0
lambda[134] 0
lambda[135] 0
lambda[136] 0
lambda[137] 0
lambda[138] 0
lambda[139] 0
lambda[140] 0
lambda[141] 0
lambda[142] 0
lambda[143] 0
lambda[144] 0
lambda[145] 0
lambda[146] 0
lambda[147] 0
lambda[148] 0
lambda[149] 0
lambda[150] 0
lambda[151] 0
lambda[152] 0
lambda[153] 0
lambda[154] 0
lambda[155] 0
lambda[156] 0
lambda[157] 0
lambda[158] 0
lambda[159] 0
lambda[160] 0
lambda[161] 0
lambda[162] 0
lambda[163] 0
lambda[164] 0
lambda[165] 0
lambda[166] 0
lambda[167] 0
lambda[168] 0
lambda[169] 0
lambda[170] 0
lambda[171] 0
lambda[172] 0
lambda[173] 0
lambda[174] 0
lambda[175] 0
lambda[176] 0
lambda[177] 0
lambda[178] 0
lambda[179] 0
lambda[180] 0
lambda[181] 0
lambda[182] 0
lambda[183] 0
lambda[184] 0
lambda[185] 0
lambda[186] 0
lambda[187] 0
lambda[188] 1.6496109368553230e-01
lambda[189] 0
lambda[190] 0
lambda[191] 0
lambda[192] 5.7761930756074764e-01
lambda[193] 2.5741959875372017e-01
phi[0] 2.2314355131420971e-01
